c ren 1 -> 1
c ren 2 -> 2
c ren 3 -> 3
c ren 4 -> 4
c ren 5 -> 5
c ren 6 -> 6
c ren 7 -> 7
c ren 8 -> 8
c ren 9 -> 9
c ren 10 -> 10
c ren 11 -> 11
c ren 12 -> 12
c ren 13 -> 13
c ren 14 -> 14
c ren 15 -> 15
c ren 16 -> 16
c ren 17 -> 17
c ren 18 -> 18
c ren 19 -> 19
c ren 20 -> 20
c ren 21 -> 21
c ren 22 -> 22
c ren 23 -> 23
c ren 24 -> 24
c ren 25 -> 25
c ren 26 -> 26
c ren 27 -> 27
c ren 28 -> 28
c ren 29 -> 29
c ren 30 -> 30
c ren 31 -> 31
c ren 32 -> 32
c ren 33 -> 33
c ren 34 -> 34
c ren 35 -> 35
c ren 36 -> 36
c ren 37 -> 37
c ren 38 -> 38
c ren 39 -> 39
c ren 40 -> 40
c ren 41 -> 41
c ren 42 -> 42
c ren 43 -> 43
c ren 44 -> 44
c ren 45 -> 45
c ren 46 -> 46
c ren 47 -> 47
c ren 48 -> 48
c ren 49 -> 49
c ren 50 -> 50
c ren 51 -> 51
c ren 52 -> 52
c ren 53 -> 53
c ren 54 -> 54
c ren 55 -> 55
c ren 56 -> 56
c ren 57 -> 57
c ren 58 -> 58
c ren 59 -> 59
c ren 60 -> 60
c ren 61 -> 61
c ren 62 -> 62
c ren 63 -> 63
c ren 64 -> 64
c ren 65 -> 65
c ren 67 -> 66
c ren 70 -> 67
c ren 76 -> 68
c ren 79 -> 69
c ren 82 -> 70
c ren 93 -> 71
c ren 101 -> 72
c ren 108 -> 73
c ren 114 -> 74
c ren 115 -> 75
c ren 121 -> 76
c ren 128 -> 77
c ren 138 -> 78
c ren 139 -> 79
c ren 143 -> 80
c ren 145 -> 81
c ren 146 -> 82
c ren 150 -> 83
c ren 152 -> 84
c ren 153 -> 85
c ren 157 -> 86
c ren 159 -> 87
c ren 169 -> 88
c ren 178 -> 89
c ren 187 -> 90
c ren 196 -> 91
c ren 205 -> 92
c ren 214 -> 93
c ren 219 -> 94
c ren 228 -> 95
c ren 237 -> 96
c ren 243 -> 97
c ren 254 -> 98
c ren 263 -> 99
c ren 271 -> 100
c ren 279 -> 101
c ren 287 -> 102
c ren 295 -> 103
c ren 303 -> 104
c ren 311 -> 105
c ren 322 -> 106
c ren 339 -> 107
c ren 347 -> 108
c ren 354 -> 109
c ren 384 -> 110
c ren 385 -> 111
c ren 389 -> 112
c ren 391 -> 113
c ren 392 -> 114
c ren 396 -> 115
c ren 400 -> 116
c ren 402 -> 117
c ren 412 -> 118
c ren 421 -> 119
c ren 430 -> 120
c ren 439 -> 121
c ren 448 -> 122
c ren 457 -> 123
c ren 486 -> 124
c ren 497 -> 125
c ren 506 -> 126
c ren 514 -> 127
c ren 522 -> 128
c ren 530 -> 129
c ren 538 -> 130
c ren 546 -> 131
c ren 554 -> 132
c ren 577 -> 133
c ren 591 -> 134
c ren 592 -> 135
c ren 593 -> 136
c ren 594 -> 137
c ren 595 -> 138
c ren 596 -> 139
c ren 597 -> 140
c ren 598 -> 141
c ren 599 -> 142
c ren 600 -> 143
c ren 601 -> 144
c ren 602 -> 145
c ren 603 -> 146
c ren 604 -> 147
c ren 605 -> 148
c ren 606 -> 149
p cnf 149 731
a 1 2 3 4 5 6 7 8 9 10 11 12 13 14 15 16 17 18 19 20 21 22 23 24 25 26 27 28 29 30 31 32 33 34 35 36 37 38 39 40 41 42 43 44 45 46 47 48 49 50 51 52 53 54 0
d 55 37 38 0
d 56 39 40 0
d 57 41 42 0
d 58 43 44 0
d 59 45 46 0
d 60 47 48 0
d 61 49 50 0
d 62 51 52 0
d 63 37 38 39 40 41 42 43 44 45 46 47 48 49 50 51 52 53 54 0
d 64 37 38 39 40 41 42 43 44 45 46 47 48 49 50 51 52 53 54 0
d 65 37 38 39 40 41 42 43 44 45 46 47 48 49 50 51 52 53 54 0
e 66 67 68 69 70 71 72 73 74 75 76 77 78 79 80 81 82 83 84 85 86 87 88 89 90 91 92 93 94 95 96 97 98 99 100 101 102 103 104 105 106 107 108 109 110 111 112 113 114 115 116 117 118 119 120 121 122 123 124 125 126 127 128 129 130 131 132 133 134 135 136 137 138 139 140 141 142 143 144 145 146 147 148 149 0
-1 -66 0
2 -66 0
1 -2 66 0
-4 -67 0
6 -67 0
4 -6 67 0
-8 -71 -74 75 0
8 -10 -71 0
10 -24 -28 34 66 67 68 69 70 71 0
-12 -68 0
14 -68 0
12 -14 68 0
-16 -69 0
18 -69 0
16 -18 69 0
-20 -70 0
22 -70 0
20 -22 70 0
-24 -71 78 0
24 -26 -71 0
-8 26 30 -32 66 67 68 69 70 71 0
-28 -71 81 0
26 -79 0
-32 -71 84 0
32 -34 -71 0
-66 -71 0
-67 -71 0
8 -10 13 -87 90 0
-68 -71 0
-69 -71 0
-70 -71 0
24 -26 79 0
28 -30 82 0
32 -34 85 0
66 71 -88 0
-2 5 -71 -87 88 0
10 -24 30 -32 66 67 68 69 70 71 0
-8 26 30 34 66 67 68 69 70 71 0
5 -66 -87 88 0
10 -24 30 34 66 67 68 69 70 71 0
-2 3 -71 72 0
2 -108 0
3 -66 72 0
10 -24 -28 -32 66 67 68 69 70 71 0
-3 -72 0
-2 3 55 -64 108 0
67 71 -89 0
-6 9 -71 -87 89 0
17 -58 64 -76 121 0
10 26 30 -32 66 67 68 69 70 71 0
9 -67 -87 89 0
-23 -57 -58 -59 -64 108 109 112 115 116 117 0
-6 7 -71 73 0
10 26 30 34 66 67 68 69 70 71 0
10 26 -28 34 66 67 68 69 70 71 0
6 -109 0
7 -67 73 0
57 64 -120 0
-7 -73 0
-6 7 56 -64 109 0
13 -75 90 0
-10 13 -71 -87 90 0
-8 -24 -28 -32 66 67 68 69 70 71 0
-11 -74 0
10 -74 0
74 -75 0
-8 -24 -28 34 66 67 68 69 70 71 0
-23 68 71 72 73 75 77 80 83 86 87 0
-71 -76 -87 0
68 70 71 72 73 75 77 80 83 86 87 0
-68 -76 -87 0
-14 17 -71 -87 91 0
-23 68 69 71 72 73 75 80 83 86 87 0
22 68 71 72 73 75 77 80 83 86 87 0
-15 -76 0
14 -76 0
68 71 -91 0
70 71 72 73 75 76 77 80 83 86 87 0
17 -68 -87 91 0
-71 -77 -87 0
22 72 73 75 76 77 80 83 86 87 0
-69 -77 -87 0
-18 21 -71 -87 92 0
-23 69 71 72 73 75 76 80 83 86 87 0
-23 72 73 75 76 77 80 83 86 87 0
-19 -77 0
18 -77 0
69 71 -92 0
76 87 -91 0
17 -71 -76 91 0
-22 23 -71 -87 0
23 -70 -87 0
-22 25 -71 -87 93 0
22 74 76 77 108 109 112 115 116 117 0
60 64 -123 0
-23 74 76 77 108 109 112 115 116 117 0
23 25 -70 93 0
-23 -58 -64 74 77 108 109 112 115 116 117 0
71 -78 0
-24 -79 0
-8 -24 30 34 66 67 68 69 70 71 0
-71 -79 0
-8 -24 30 -32 66 67 68 69 70 71 0
24 -26 -78 0
-78 -80 -94 -97 0
78 79 -80 0
27 -79 80 0
26 -112 0
-79 -80 -94 -97 0
78 79 88 89 90 91 92 93 95 96 97 0
-27 -80 0
-94 -111 -112 -124 0
71 -81 0
-28 -82 0
-8 26 -28 34 66 67 68 69 70 71 0
-71 -82 0
-8 26 -28 -32 66 67 68 69 70 71 0
28 -30 -81 0
-81 -83 -95 -97 0
81 82 -83 0
31 -82 83 0
30 -115 0
-82 -83 -95 -97 0
81 82 88 89 90 91 92 93 94 96 97 0
-31 -83 0
-95 -114 -115 -124 0
71 -84 0
-32 -85 0
34 -85 0
-71 -85 0
30 -82 0
32 -34 -84 0
-84 -86 -96 -97 0
84 85 -86 0
35 -85 86 0
34 -116 0
-85 -86 -96 -97 0
84 85 88 89 90 91 92 93 94 95 97 0
-35 -86 0
-34 35 -65 116 0
-72 -87 0
-73 -87 0
-75 -87 0
17 -68 -76 91 0
21 -69 -77 92 0
22 57 58 64 77 108 109 112 115 116 117 0
-80 -87 0
-83 -87 0
-86 -87 0
-59 -64 -122 0
-23 -57 -64 76 77 108 109 112 115 116 117 0
66 71 -72 0
-23 87 -93 0
-22 23 -60 64 -117 0
5 -66 -72 88 0
-58 -64 -121 0
2 -88 0
-2 5 55 -64 -117 118 0
-5 -88 0
2 -118 0
72 87 -88 0
5 -71 -72 88 0
67 71 -73 0
9 -67 -73 89 0
6 -89 0
-6 9 56 -64 -117 119 0
-9 -89 0
6 -119 0
73 87 -89 0
9 -71 -73 89 0
8 -74 75 0
-8 71 -90 0
10 -90 0
-23 -59 -64 74 76 108 109 112 115 116 117 0
-13 -90 0
10 -120 0
75 87 -90 0
-8 71 -75 0
68 69 70 71 72 73 75 80 83 86 87 0
14 -91 0
58 64 -121 0
-17 -91 0
14 -121 0
22 68 69 71 72 73 75 80 83 86 87 0
77 87 -92 0
69 70 71 72 73 75 76 80 83 86 87 0
18 -92 0
22 -57 -58 -64 77 108 109 112 115 116 117 0
32 -34 36 106 -117 125 -134 0
-21 -92 0
18 -122 0
21 -71 -77 92 0
22 69 71 72 73 75 76 80 83 86 87 0
-23 -57 -59 -64 76 108 109 112 115 116 117 0
-22 23 25 -71 93 0
22 -93 0
13 -57 64 -74 120 0
-25 -93 0
22 -123 0
22 -58 -64 74 77 108 109 112 115 116 117 0
-81 -87 -95 -97 0
-26 27 -78 80 0
81 82 86 87 88 89 90 91 92 93 94 97 0
-79 -87 -94 -97 0
80 86 87 88 89 90 91 92 93 95 97 0
80 83 84 85 87 88 89 90 91 92 93 97 0
-29 -94 0
26 -94 0
80 81 82 84 85 87 88 89 90 91 92 93 97 0
86 87 88 89 90 91 92 93 94 95 97 0
80 83 87 88 89 90 91 92 93 96 97 0
78 79 83 87 88 89 90 91 92 93 96 97 0
78 79 81 82 88 89 90 91 92 93 96 97 0
78 79 84 85 88 89 90 91 92 93 95 97 0
-30 31 -81 83 0
88 89 90 91 92 93 94 95 96 97 0
81 82 84 85 88 89 90 91 92 93 94 97 0
-82 -87 -95 -97 0
-78 -87 -94 -97 0
80 81 82 86 87 88 89 90 91 92 93 97 0
78 79 86 87 88 89 90 91 92 93 95 97 0
83 84 85 87 88 89 90 91 92 93 94 97 0
-33 -95 0
30 -95 0
80 81 82 87 88 89 90 91 92 93 96 97 0
78 79 83 84 85 87 88 89 90 91 92 93 97 0
80 83 86 87 88 89 90 91 92 93 97 0
78 79 81 82 86 87 88 89 90 91 92 93 97 0
-34 35 -84 86 0
83 86 87 88 89 90 91 92 93 94 97 0
78 79 83 86 87 88 89 90 91 92 93 97 0
-85 -87 -96 -97 0
83 87 88 89 90 91 92 93 94 96 97 0
-36 -96 0
34 -96 0
80 87 88 89 90 91 92 93 95 96 97 0
-88 -97 0
-89 -97 0
-90 -97 0
-91 -97 0
-92 -97 0
-93 -97 0
78 79 81 82 84 85 88 89 90 91 92 93 97 0
80 84 85 87 88 89 90 91 92 93 95 97 0
-84 -87 -96 -97 0
1 -2 3 -97 98 0
-1 71 -98 0
-2 5 -71 -87 98 0
1 -2 -87 -97 98 0
-3 87 -98 0
-2 -71 -87 -97 98 0
-2 3 -71 -97 98 0
-5 97 -98 0
2 -98 0
1 -2 3 5 98 0
1 -2 5 -87 98 0
-2 3 5 -71 98 0
4 -6 7 -97 99 0
-4 71 -99 0
-6 9 -71 -87 99 0
4 -6 -87 -97 99 0
-7 87 -99 0
-6 -71 -87 -97 99 0
-6 7 -71 -97 99 0
-9 97 -99 0
4 -6 7 9 99 0
4 -6 9 -87 99 0
-6 7 9 -71 99 0
6 -99 0
8 -10 11 -97 100 0
-8 71 -100 0
-10 13 -71 -87 100 0
8 -10 -87 -97 100 0
-11 87 -100 0
-10 -71 -87 -97 100 0
-10 11 -71 -97 100 0
-13 97 -100 0
8 -10 11 13 100 0
8 -10 13 -87 100 0
-10 11 13 -71 100 0
10 -100 0
12 -14 15 -97 101 0
-12 71 -101 0
-14 17 -71 -87 101 0
12 -14 -87 -97 101 0
-15 87 -101 0
-14 -71 -87 -97 101 0
-14 15 -71 -97 101 0
-17 97 -101 0
12 -14 15 17 101 0
12 -14 17 -87 101 0
-14 15 17 -71 101 0
14 -101 0
16 -18 19 -97 102 0
-16 71 -102 0
-18 21 -71 -87 102 0
16 -18 -87 -97 102 0
-19 87 -102 0
-18 -71 -87 -97 102 0
-18 19 -71 -97 102 0
-21 97 -102 0
16 -18 19 21 102 0
16 -18 21 -87 102 0
-18 19 21 -71 102 0
18 -102 0
20 -22 23 -97 103 0
-20 71 -103 0
-22 25 -71 -87 103 0
20 -22 -87 -97 103 0
-23 87 -103 0
-22 -71 -87 -97 103 0
-22 23 -71 -97 103 0
-25 97 -103 0
20 -22 23 25 103 0
20 -22 25 -87 103 0
-22 23 25 -71 103 0
22 -103 0
24 -26 27 -97 104 0
-24 71 -104 0
-26 29 -71 -87 104 0
24 -26 -87 -97 104 0
-27 87 -104 0
-26 -71 -87 -97 104 0
-26 27 -71 -97 104 0
-29 97 -104 0
24 -26 27 29 104 0
24 -26 29 -87 104 0
-26 27 29 -71 104 0
26 -104 0
28 -30 31 -97 105 0
-28 71 -105 0
-30 33 -71 -87 105 0
28 -30 -87 -97 105 0
-31 87 -105 0
-30 -71 -87 -97 105 0
-30 31 -71 -97 105 0
-33 97 -105 0
28 -30 31 33 105 0
28 -30 33 -87 105 0
-30 31 33 -71 105 0
30 -105 0
32 -34 35 -97 98 106 0
-32 71 99 100 101 102 103 104 105 -106 0
-34 36 -71 -87 98 106 0
32 -34 -87 -97 98 106 0
-35 87 99 100 101 102 103 104 105 -106 0
-34 -71 -87 -97 98 106 0
-34 35 -71 -97 98 106 0
-36 97 99 100 101 102 103 104 105 -106 0
-34 35 36 -71 98 106 0
34 99 100 101 102 103 104 105 -106 0
32 -34 35 36 98 106 0
32 -34 36 -87 98 106 0
98 -99 106 0
98 -100 106 0
98 -101 106 0
98 -102 106 0
98 -103 106 0
98 -104 106 0
-98 -106 0
98 -105 106 0
99 -100 107 0
100 -101 -107 0
99 102 -126 -134 0
99 100 101 102 -127 -134 0
99 100 101 102 -128 -134 0
-100 126 127 128 129 -134 0
101 102 -103 -133 -134 0
100 102 -103 -107 0
99 100 -102 133 -134 0
99 100 101 102 -129 -134 0
-100 -133 -134 0
99 101 -102 -104 107 0
99 100 103 104 133 -134 0
-99 -133 -134 0
99 101 103 -104 107 0
99 101 103 105 107 0
100 104 -105 -107 0
99 101 -102 105 107 0
101 102 -104 -133 -134 0
-99 -107 0
-57 -58 -60 -64 77 108 109 112 115 116 117 0
55 64 -118 0
-55 -64 -118 0
5 -108 118 0
-2 3 -55 64 108 0
-55 -64 -108 0
10 26 -28 -32 66 67 68 69 70 71 0
-3 -108 0
2 -72 0
56 64 -119 0
9 -109 119 0
-56 -64 -119 0
-6 7 -56 64 109 0
-56 -64 -109 0
21 -59 64 -77 122 0
-7 -109 0
6 -73 0
57 58 60 64 77 108 109 112 115 116 117 0
-57 64 -74 -117 0
-57 -60 -64 76 77 108 109 112 115 116 117 0
57 -64 -74 -117 0
-10 13 -57 64 -117 120 0
22 57 64 76 77 108 109 112 115 116 117 0
-23 57 64 76 77 108 109 112 115 116 117 0
-10 11 74 0
74 117 -120 0
57 59 60 64 76 108 109 112 115 116 117 0
-22 25 60 -64 -117 123 0
58 60 64 74 77 108 109 112 115 116 117 0
-58 64 -76 -117 0
-23 58 64 74 77 108 109 112 115 116 117 0
58 -64 -76 -117 0
-14 17 -58 64 -117 121 0
-58 -60 -64 74 77 108 109 112 115 116 117 0
22 -57 -59 -64 76 108 109 112 115 116 117 0
-14 15 76 0
76 117 -121 0
-23 57 59 64 76 108 109 112 115 116 117 0
-57 -58 -59 -60 -64 108 109 112 115 116 117 0
59 60 64 74 76 108 109 112 115 116 117 0
-59 64 -77 -117 0
22 58 59 64 74 108 109 112 115 116 117 0
59 -64 -77 -117 0
22 -59 -64 74 76 108 109 112 115 116 117 0
-18 21 -59 64 -117 122 0
-59 -60 -64 74 76 108 109 112 115 116 117 0
-23 59 64 74 76 108 109 112 115 116 117 0
-18 19 77 0
77 117 -122 0
57 60 64 76 77 108 109 112 115 116 117 0
-60 -64 74 76 77 108 109 112 115 116 117 0
60 64 74 76 77 108 109 112 115 116 117 0
-22 23 25 -60 64 123 0
22 -57 -64 76 77 108 109 112 115 116 117 0
-22 23 25 60 -64 123 0
22 -57 -58 -59 -64 108 109 112 115 116 117 0
-22 25 -60 64 -117 123 0
-57 -59 -60 -64 76 108 109 112 115 116 117 0
-23 -57 -58 -64 77 108 109 112 115 116 117 0
59 64 -122 0
-57 -64 -120 0
70 71 -93 0
-23 117 -123 0
-64 -110 0
61 -110 0
-61 64 110 0
64 -111 0
-61 -111 0
61 -64 111 0
-94 -110 -112 -124 0
110 111 -112 0
-26 27 -111 112 0
-23 58 59 64 74 108 109 112 115 116 117 0
96 110 111 115 117 118 119 120 121 122 123 124 0
-27 -112 0
26 -80 0
-64 -113 0
62 -113 0
-62 64 113 0
64 -114 0
-62 -114 0
62 -64 114 0
-95 -113 -115 -124 0
113 114 -115 0
-30 31 -114 115 0
21 -69 -87 92 0
65 110 111 113 114 118 119 120 121 122 123 124 0
-31 -115 0
30 -83 0
25 -70 -87 93 0
65 -116 0
-35 -116 0
34 -86 0
-108 -117 0
-109 -117 0
13 57 -64 -74 120 0
17 58 -64 -76 121 0
21 59 -64 -77 122 0
-22 23 60 -64 -117 0
-112 -117 0
-115 -117 0
-116 -117 0
22 58 64 74 77 108 109 112 115 116 117 0
55 64 -108 0
-2 5 -55 64 -117 118 0
108 117 -118 0
-5 -118 0
56 64 -109 0
-6 9 -56 64 -117 119 0
109 117 -119 0
-9 -119 0
-10 13 57 -64 -117 120 0
-34 -63 106 -117 -124 125 -134 0
22 57 59 64 76 108 109 112 115 116 117 0
-23 57 58 59 64 108 109 112 115 116 117 0
-13 -120 0
-14 17 58 -64 -117 121 0
-34 36 -63 106 -117 125 -134 0
57 58 59 60 64 108 109 112 115 116 117 0
-58 -59 -60 -64 74 108 109 112 115 116 117 0
-17 -121 0
-18 21 59 -64 -117 122 0
22 57 58 59 64 108 109 112 115 116 117 0
22 59 64 74 76 108 109 112 115 116 117 0
-21 -122 0
58 59 60 64 74 108 109 112 115 116 117 0
-60 -64 -123 0
-25 -123 0
112 113 114 116 117 118 119 120 121 122 123 124 0
-26 27 -110 112 0
95 96 112 117 118 119 120 121 122 123 124 0
-94 -111 -117 -124 0
-95 -113 -117 -124 0
65 95 112 117 118 119 120 121 122 123 124 0
-26 29 94 0
94 113 114 116 117 118 119 120 121 122 123 124 0
94 96 113 114 118 119 120 121 122 123 124 0
96 112 115 117 118 119 120 121 122 123 124 0
65 94 113 114 118 119 120 121 122 123 124 0
65 94 95 118 119 120 121 122 123 124 0
96 112 113 114 117 118 119 120 121 122 123 124 0
-30 31 -113 115 0
110 111 113 114 116 117 118 119 120 121 122 123 124 0
94 95 116 117 118 119 120 121 122 123 124 0
-95 -114 -117 -124 0
-94 -110 -117 -124 0
94 95 96 118 119 120 121 122 123 124 0
94 96 115 117 118 119 120 121 122 123 124 0
95 110 111 116 117 118 119 120 121 122 123 124 0
-101 126 127 128 129 -134 0
-30 33 95 0
65 95 110 111 118 119 120 121 122 123 124 0
94 115 116 117 118 119 120 121 122 123 124 0
112 115 116 117 118 119 120 121 122 123 124 0
96 110 111 113 114 118 119 120 121 122 123 124 0
-65 -96 -117 -124 0
95 96 110 111 118 119 120 121 122 123 124 0
110 111 115 116 117 118 119 120 121 122 123 124 0
-96 -116 -124 0
65 110 111 115 117 118 119 120 121 122 123 124 0
-34 36 96 0
65 112 113 114 117 118 119 120 121 122 123 124 0
-118 -124 0
-119 -124 0
-120 -124 0
-121 -124 0
-122 -124 0
-123 -124 0
95 112 116 117 118 119 120 121 122 123 124 0
65 94 115 117 118 119 120 121 122 123 124 0
65 112 115 117 118 119 120 121 122 123 124 0
1 -2 3 -124 125 0
-1 63 -125 0
-2 5 -63 -117 125 0
1 -2 -117 -124 125 0
-3 117 -125 0
-2 -63 -117 -124 125 0
-2 3 -63 -124 125 0
-5 124 -125 0
2 -125 0
1 -2 3 5 125 0
1 -2 5 -117 125 0
-2 3 5 -63 125 0
4 -6 7 -124 126 0
-4 63 -126 0
-6 9 -63 -117 126 0
4 -6 -117 -124 126 0
-7 117 -126 0
-6 -63 -117 -124 126 0
-6 7 -63 -124 126 0
-9 124 -126 0
4 -6 7 9 126 0
4 -6 9 -117 126 0
-6 7 9 -63 126 0
6 -126 0
8 -10 11 -124 127 0
-8 63 -127 0
-10 13 -63 -117 127 0
8 -10 -117 -124 127 0
-11 117 -127 0
-10 -63 -117 -124 127 0
-10 11 -63 -124 127 0
-13 124 -127 0
8 -10 11 13 127 0
8 -10 13 -117 127 0
-10 11 13 -63 127 0
10 -127 0
12 -14 15 -124 128 0
-12 63 -128 0
-14 17 -63 -117 128 0
12 -14 -117 -124 128 0
-15 117 -128 0
-14 -63 -117 -124 128 0
-14 15 -63 -124 128 0
-17 124 -128 0
12 -14 15 17 128 0
12 -14 17 -117 128 0
-14 15 17 -63 128 0
14 -128 0
16 -18 19 -124 129 0
-16 63 -129 0
-18 21 -63 -117 129 0
16 -18 -117 -124 129 0
-19 117 -129 0
-18 -63 -117 -124 129 0
-18 19 -63 -124 129 0
-21 124 -129 0
16 -18 19 21 129 0
16 -18 21 -117 129 0
-18 19 21 -63 129 0
18 -129 0
20 -22 23 -124 130 0
-20 63 -130 0
-22 25 -63 -117 130 0
20 -22 -117 -124 130 0
-23 117 -130 0
-22 -63 -117 -124 130 0
-22 23 -63 -124 130 0
-25 124 -130 0
20 -22 23 25 130 0
20 -22 25 -117 130 0
-22 23 25 -63 130 0
22 -130 0
24 -26 27 -124 131 0
-24 63 -131 0
-26 29 -63 -117 131 0
24 -26 -117 -124 131 0
-27 117 -131 0
-26 -63 -117 -124 131 0
-26 27 -63 -124 131 0
-29 124 -131 0
24 -26 27 29 131 0
24 -26 29 -117 131 0
-26 27 29 -63 131 0
26 -131 0
28 -30 31 -124 132 0
-28 63 -132 0
-30 33 -63 -117 132 0
28 -30 -117 -124 132 0
-31 117 -132 0
-30 -63 -117 -124 132 0
-30 31 -63 -124 132 0
-33 124 -132 0
28 -30 31 33 132 0
28 -30 33 -117 132 0
-30 31 33 -63 132 0
30 -132 0
-32 63 -106 126 127 128 129 130 131 132 -134 0
-34 35 -63 106 -124 125 -134 0
-35 -106 117 126 127 128 129 130 131 132 -134 0
-34 35 36 -63 106 125 -134 0
-36 -106 124 126 127 128 129 130 131 132 -134 0
32 -34 35 36 106 125 -134 0
32 -34 106 -117 -124 125 -134 0
34 -106 126 127 128 129 130 131 132 -134 0
32 -34 35 106 -124 125 -134 0
106 125 -126 -134 0
106 125 -127 -134 0
106 125 -128 -134 0
106 125 -131 -134 0
106 125 -130 -134 0
107 126 -127 -134 0
126 127 130 131 133 0
128 129 -130 -133 0
-107 127 129 -130 -134 0
107 126 128 -129 -131 -134 0
-23 57 58 64 77 108 109 112 115 116 117 0
-23 -58 -59 -64 74 108 109 112 115 116 117 0
128 129 -131 -133 0
126 127 -128 133 0
-126 -133 0
-127 -133 0
107 126 128 -129 132 -134 0
126 127 -129 133 0
99 100 -101 133 -134 0
-107 127 131 -132 -134 0
-107 127 -128 -134 0
22 -58 -59 -64 74 108 109 112 115 116 117 0
-63 71 -134 0
63 -71 -134 0
87 -117 -134 0
-87 117 -134 0
97 -124 -134 0
-97 124 -134 0
-106 -125 -134 0
106 125 -129 -134 0
106 125 -132 -134 0
-99 126 127 128 129 -134 0
107 126 128 130 -131 -134 0
107 126 128 130 132 -134 0
-107 -126 -134 0
-1 -37 -135 0
1 37 -135 0
-2 -38 -136 0
2 38 -136 0
-4 -39 -137 0
4 39 -137 0
-6 -40 -138 0
6 40 -138 0
-8 -41 -139 0
8 41 -139 0
-10 -42 -140 0
10 42 -140 0
-12 -43 -141 0
12 43 -141 0
-14 -44 -142 0
14 44 -142 0
-16 -45 -143 0
16 45 -143 0
-18 -46 -144 0
18 46 -144 0
-20 -47 -145 0
20 47 -145 0
-22 -48 -146 0
22 48 -146 0
-24 -49 -147 0
24 49 -147 0
-26 -50 -148 0
26 50 -148 0
-28 -51 -149 0
28 51 -149 0
-30 -32 34 -52 -53 54 134 135 136 137 138 139 140 141 142 143 144 145 146 147 148 149 0
30 32 34 52 53 54 134 135 136 137 138 139 140 141 142 143 144 145 146 147 148 149 0
-30 32 -34 -52 53 -54 134 135 136 137 138 139 140 141 142 143 144 145 146 147 148 149 0
-30 -32 -34 -52 -53 -54 134 135 136 137 138 139 140 141 142 143 144 145 146 147 148 149 0
30 -32 -34 52 -53 -54 134 135 136 137 138 139 140 141 142 143 144 145 146 147 148 149 0
30 -32 34 52 -53 54 134 135 136 137 138 139 140 141 142 143 144 145 146 147 148 149 0
-30 32 34 -52 53 54 134 135 136 137 138 139 140 141 142 143 144 145 146 147 148 149 0
-102 126 127 128 129 -134 0
30 32 -34 52 53 -54 134 135 136 137 138 139 140 141 142 143 144 145 146 147 148 149 0
